
Gurobi 11.0.3 (linux64) logging started Mon Aug 25 15:05:55 2025

Set parameter LogFile to value "/home/yihong/Coding/OR_SUC/SUC_epstheta_results_bigM100000_thread4/case24_ieee_rts_theta0.1_epsilon0.1_gurobi_seed210000_num_gen100_N_WDR50_load_scaling_factor1_proposed_eps_T10quadra_cost_bc1.05.txt"
Set parameter TimeLimit to value 3600
Gurobi Optimizer version 11.0.3 build v11.0.3rc0 (linux64 - "Ubuntu 20.04.6 LTS")

CPU model: AMD EPYC 7532 32-Core Processor, instruction set [SSE2|AVX|AVX2]
Thread count: 64 physical cores, 128 logical processors, using up to 4 threads

Academic license 2399124 - for non-commercial use only - registered to yi___@ed.ac.uk
Optimize a model with 23642 rows, 12451 columns and 547142 nonzeros
Model fingerprint: 0x24d1612b
Model has 1000 quadratic constraints
Variable types: 11451 continuous, 1000 integer (1000 binary)
Coefficient statistics:
  Matrix range     [3e-04, 2e+03]
  QMatrix range    [2e-03, 8e-03]
  QLMatrix range   [5e-02, 6e+01]
  Objective range  [1e+00, 1e+00]
  Bounds range     [1e+00, 1e+00]
  RHS range        [1e+00, 9e+03]
Presolve removed 19476 rows and 5417 columns
Presolve time: 0.17s
Presolved: 4166 rows, 7034 columns, 23687 nonzeros
Presolved model has 1000 quadratic constraint(s)
Variable types: 6034 continuous, 1000 integer (1000 binary)

Root relaxation: objective 1.277726e+04, 3246 iterations, 0.07 seconds (0.08 work units)

    Nodes    |    Current Node    |     Objective Bounds      |     Work
 Expl Unexpl |  Obj  Depth IntInf | Incumbent    BestBd   Gap | It/Node Time

H    0     0                    271346.05865 12777.2626  95.3%     -    0s
*    0     0               0    271346.05865 12777.2626  95.3%     -    0s
     0     0 123339.493    0  414 271346.059 123339.493  54.5%     -    0s
     0     0 247546.533    0   71 271346.059 247546.533  8.77%     -    0s
     0     0 247591.423    0    9 271346.059 247591.423  8.75%     -    0s
     0     0 247591.716    0    8 271346.059 247591.716  8.75%     -    0s
     0     0 247592.575    0    8 271346.059 247592.575  8.75%     -    0s
     0     0 247592.575    0    9 271346.059 247592.575  8.75%     -    0s
     0     0 247594.605    0    9 271346.059 247594.605  8.75%     -    0s
     0     2 247594.605    0    9 271346.059 247594.605  8.75%     -    1s
H   79   104                    247661.36462 247602.202  0.02%  27.8    1s
*   79   104              22    247661.36462 247602.202  0.02%  27.8    1s

Cutting planes:
  Gomory: 62
  Lift-and-project: 1
  Implied bound: 122
  MIR: 18
  Flow cover: 246
  RLT: 145
  Relax-and-lift: 90

Explored 129 nodes (11421 simplex iterations) in 2.09 seconds (1.85 work units)
Thread count was 4 (of 128 available processors)

Solution count 3: 247661 247661 271346 

Optimal solution found (tolerance 1.00e-03)
Warning: max constraint violation (1.5420e-08) exceeds tolerance
Best objective 2.476613646187e+05, best bound 2.476022015990e+05, gap 0.0239%

Gurobi 11.0.3 (linux64) logging started Mon Aug 25 15:05:58 2025

Set parameter LogFile to value "/home/yihong/Coding/OR_SUC/SUC_epstheta_results_bigM100000_thread4/case24_ieee_rts_theta0.1_epsilon0.1_gurobi_seed210000_num_gen100_N_WDR50_load_scaling_factor1_proposed_eps_T10quadra_cost_bc1.05.txt"
Set parameter TimeLimit to value 3600
Gurobi Optimizer version 11.0.3 build v11.0.3rc0 (linux64 - "Ubuntu 20.04.6 LTS")

CPU model: AMD EPYC 7532 32-Core Processor, instruction set [SSE2|AVX|AVX2]
Thread count: 64 physical cores, 128 logical processors, using up to 4 threads

Academic license 2399124 - for non-commercial use only - registered to yi___@ed.ac.uk
Optimize a model with 23642 rows, 12452 columns and 550191 nonzeros
Model fingerprint: 0x9cd1156e
Model has 1001 quadratic constraints
Variable types: 11452 continuous, 1000 integer (1000 binary)
Coefficient statistics:
  Matrix range     [3e-04, 2e+03]
  QMatrix range    [2e-03, 5e+01]
  QLMatrix range   [5e-02, 6e+01]
  Objective range  [1e+00, 1e+00]
  Bounds range     [1e-01, 1e+00]
  RHS range        [1e+00, 3e+05]
  QRHS range       [5e+00, 5e+00]
Presolve removed 17684 rows and 4520 columns
Presolve time: 0.17s
Presolved: 6960 rows, 8932 columns, 36419 nonzeros
Presolved model has 1000 quadratic constraint(s)
Presolved model has 1 bilinear constraint(s)

Solving non-convex MIQCP

Variable types: 7930 continuous, 1002 integer (1002 binary)

Root relaxation: objective 1.450258e-03, 9950 iterations, 0.49 seconds (0.66 work units)

    Nodes    |    Current Node    |     Objective Bounds      |     Work
 Expl Unexpl |  Obj  Depth IntInf | Incumbent    BestBd   Gap | It/Node Time

     0     0    0.00145    0   12          -    0.00145      -     -    1s
     0     0    0.00145    0   15          -    0.00145      -     -    1s
     0     0    0.00145    0   15          -    0.00145      -     -    1s
     0     0    0.00145    0   11          -    0.00145      -     -    1s
     0     0    0.00145    0    7          -    0.00145      -     -    1s
     0     0    0.00195    0    7          -    0.00195      -     -    1s
     0     0    0.00195    0    7          -    0.00195      -     -    1s
     0     0    0.00195    0    7          -    0.00195      -     -    1s
     0     0    0.00195    0    7          -    0.00195      -     -    1s
     0     0    0.00195    0    7          -    0.00195      -     -    1s
     0     0    0.00195    0    7          -    0.00195      -     -    1s
     0     0    0.00241    0    7          -    0.00241      -     -    1s
H    0     0                       0.0079193    0.00241  69.6%     -    2s
     0     2    0.00753    0    7    0.00792    0.00753  4.96%     -    2s
   184   194    0.00761   29    8    0.00792    0.00753  4.88%  20.3    5s
H  239   226                       0.0076012    0.00753  0.90%  20.7    5s
*  239   226              53       0.0076012    0.00753  0.90%  20.7    5s
H  270   221                       0.0075858    0.00753  0.69%  19.9    5s
*  270   221              60       0.0075858    0.00753  0.69%  19.9    5s
H  301   232                       0.0075857    0.00753  0.68%  18.5    8s
*  301   232              62       0.0075857    0.00753  0.68%  18.6    8s
   931   584    0.00758   39    5    0.00759    0.00754  0.66%  19.9   10s
  1004   590    0.00758   18   36    0.00759    0.00755  0.47%  19.7   15s
H 1739   878                       0.0075848    0.00755  0.43%  23.4   19s
  1925   901    0.00757   46   32    0.00758    0.00755  0.43%  21.8   20s
H 2005   845                       0.0075848    0.00755  0.43%  21.2   20s
* 2845   852             374       0.0075801    0.00756  0.31%  16.5   22s
H 3019   626                       0.0075764    0.00756  0.26%  15.8   22s
  4035  1583    0.00758  261    7    0.00758    0.00756  0.25%  12.8   25s
H 4038  1581                       0.0075764    0.00756  0.25%  12.8   25s
* 4359  1478             361       0.0075756    0.00756  0.24%  12.2   25s
* 4914  1208             334       0.0075719    0.00756  0.19%  11.0   26s
H 5164   813                       0.0075699    0.00756  0.16%  10.4   26s
* 6058   834             379       0.0075654    0.00756  0.10%   9.3   28s

Cutting planes:
  Gomory: 1
  Lift-and-project: 5
  Implied bound: 18
  MIR: 4
  StrongCG: 1
  Flow cover: 4
  Inf proof: 5
  RLT: 13
  Relax-and-lift: 5

Explored 6140 nodes (67501 simplex iterations) in 28.47 seconds (27.09 work units)
Thread count was 4 (of 128 available processors)

Solution count 10: 0.00756535 0.00756986 0.00757186 ... 0.00758567

Optimal solution found (tolerance 1.00e-03)
Best objective 7.565350138674e-03, best bound 7.558023548142e-03, gap 0.0968%
